NAME: line_40_2
TYPE: TSP
COMMENT: line_40_2
DIMENSION: 40
EDGE_WEIGHT_TYPE: EUC_2D
NODE_COORD_SECTION
1 0.0 61.0
2 0.0 341.0
3 0.0 185.0
4 0.0 236.0
5 0.0 295.0
6 0.0 20.0
7 0.0 177.0
8 0.0 273.0
9 0.0 102.0
10 0.0 362.0
11 0.0 123.0
12 0.0 242.0
13 0.0 265.0
14 0.0 169.0
15 0.0 256.0
16 0.0 306.0
17 0.0 91.0
18 0.0 51.0
19 0.0 3.0
20 0.0 306.0
21 0.0 69.0
22 0.0 379.0
23 0.0 366.0
24 0.0 36.0
25 0.0 188.0
26 0.0 219.0
27 0.0 140.0
28 0.0 124.0
29 0.0 148.0
30 0.0 37.0
31 0.0 187.0
32 0.0 260.0
33 0.0 379.0
34 0.0 186.0
35 0.0 319.0
36 0.0 9.0
37 0.0 84.0
38 0.0 25.0
39 0.0 123.0
40 0.0 32.0
